n_res = 4;
rcap = [13, 16, 118, 123];
rtype = [1, 1, 2, 2];
n_tasks = 16;
modes = [ {1, 2, 3, 4}, {5, 6, 7, 8}, {9, 10, 11, 12}, {13, 14, 15, 16}, {17, 18, 19, 20}, {21, 22, 23, 24}, {25, 26, 27, 28}, {29, 30, 31, 32}, {33, 34, 35, 36}, {37, 38, 39, 40}, {41, 42, 43, 44}, {45, 46, 47, 48}, {49, 50, 51, 52}, {53, 54, 55, 56}, {57, 58, 59, 60}, {61, 62, 63, 64} ];
succ = [ {12, 13, 16}, {8, 10, 14}, {4, 7, 12}, {5}, {6, 8, 9}, {10, 11, 14}, {9, 11}, {15, 16}, {10, 13, 16}, {15}, {13}, {14}, {15}, {}, {}, {} ];
n_opt = 64;
dur = [5, 7, 9, 10, 3, 6, 7, 10, 1, 3, 4, 7, 3, 4, 10, 10, 2, 5, 9, 9, 1, 7, 10, 10, 1, 5, 6, 8, 4, 7, 10, 10, 2, 4, 7, 10, 2, 7, 7, 9, 1, 3, 6, 8, 2, 6, 8, 9, 1, 4, 8, 9, 2, 3, 4, 5, 5, 6, 8, 9, 2, 4, 8, 8];
rreq = [|  7,  0,  0,  6,  8,  0,  5,  0,  0,  0,  0,  5,  0,  0,  0,  2,  6,  5,  5,  0,  8,  0,  6,  0,  6,  6,  0,  4,  8,  0,  8,  0,  0,  4,  0,  0,  8,  0,  8,  7,  0,  6,  0,  0,  0,  0,  5,  0,  9,  8,  0,  5,  7,  0,  5,  3,  0,  2,  0,  0,  0,  0,  2,  0
        |  0,  6,  5,  0,  0,  6,  0,  4,  7,  6,  3,  0, 10,  9,  9,  0,  0,  0,  0,  6,  0,  3,  0,  1,  0,  0,  5,  0,  0,  4,  0,  4,  3,  0,  2,  2,  0,  7,  0,  0,  7,  0,  4,  4,  8,  8,  0,  3,  0,  0,  8,  0,  0,  6,  0,  0,  9,  0,  6,  6, 10,  9,  0,  9
        |  7,  7,  6,  5,  4,  4,  4,  2,  7,  7,  7,  7,  7,  3,  2,  3,  7,  6,  5,  5, 10, 10,  9,  9,  8,  8,  8,  7,  8,  8,  7,  7,  5,  3,  3,  2,  9,  7,  8,  7,  7,  7,  6,  5,  7,  6,  5,  4,  6,  6,  4,  3,  9,  6,  5,  2,  8,  6,  5,  3,  9,  8,  7,  6
        |  5,  5,  4,  3,  9,  7,  4,  2,  6,  5,  5,  3,  9,  9,  8,  9,  7,  6,  4,  1,  6,  5,  5,  4,  8,  7,  7,  5,  8,  6,  4,  5,  6,  4,  2,  2, 10,  9,  9,  9,  7,  7,  6,  6,  8,  5,  4,  3,  9,  8,  5,  5,  9,  8,  7,  7,  8,  8,  7,  7,  8,  7,  4,  3 |];
